-5785705472657297820
-6020173025558946707
-6538755937196023055
2322374995309661651
-692939558738768226
8057792651305456070
8964567365514005511
-7623634877598241364
-4623570535752559942
-2470672733895511458
